/*********************************************
 * OPL 12.6.0.0 Data
 * Author: Adrian Rodriguez Bazaga, Pau Rodriguez Esmerats
 * Creation Date: 23/11/2017 at 07:17:40
 *********************************************/

nNurses=110;
maxConsec=2;
maxPresence=7;
maxHours=5;
minHours=1;
demand= [27 24 27 31 24 27 31 27 15 8 2 5 2 5 3 2 2 1 1 0 24 46 23 36  ];
